\Problem name: 

Minimize
OBJROW: C
Subject To
minimum_jobs:  x(0) + x(1) + x(2) >= 2
k_in_S:  x(2) = 1
constr(2):  0.144300144 x(0) + 0.285714286 x(1) + C = 4.666666667
Bounds
 0 <= x(0) <= 1
 0 <= x(1) <= 1
 0 <= x(2) <= 1
 -4200 <= C
Integers
x(0) x(1) x(2) 
End
